NAME          BLANK   
ROWS
 N  OBJROW
 L  R0000000
COLUMNS
    C0000000  OBJROW     -432.         R0000000  406.        
    C0000001  OBJROW     -439.         R0000000  830.        
    C0000002  OBJROW     -159.         R0000000  351.        
    C0000003  OBJROW     -416.         R0000000  325.        
    C0000004  OBJROW     -865.         R0000000  357.        
    C0000005  OBJROW     -562.         R0000000  126.        
    C0000006  OBJROW     -2.           R0000000  656.        
    C0000007  OBJROW     -554.         R0000000  994.        
    C0000008  OBJROW     -9.           R0000000  457.        
    C0000009  OBJROW     -805.         R0000000  879.        
    C0000010  OBJROW     -668.         R0000000  232.        
    C0000011  OBJROW     -709.         R0000000  49.         
RHS
    RHS       R0000000  15060.      
BOUNDS
 BV BOUND     C0000000  1.          
 BV BOUND     C0000001  1.          
 BV BOUND     C0000002  1.          
 BV BOUND     C0000003  1.          
 BV BOUND     C0000004  1.          
 BV BOUND     C0000005  1.          
 BV BOUND     C0000006  1.          
 BV BOUND     C0000007  1.          
 BV BOUND     C0000008  1.          
 BV BOUND     C0000009  1.          
 BV BOUND     C0000010  1.          
 BV BOUND     C0000011  1.          
ENDATA
